kp_lp_files/pr152_n151_uncorr_01-kp.lp
MAXIMIZE
119 z0 + 187 z1 + 997 z2 + 22 z3 + 347 z4 + 522 z5 + 730 z6 + 705 z7 + 232 z8 + 554 z9 + 675 z10 + 970 z11 + 407 z12 + 276 z13 + 331 z14 + 361 z15 + 798 z16 + 427 z17 + 439 z18 + 91 z19 + 650 z20 + 10 z21 + 838 z22 + 725 z23 + 843 z24 + 137 z25 + 977 z26 + 718 z27 + 99 z28 + 609 z29 + 819 z30 + 97 z31 + 975 z32 + 226 z33 + 241 z34 + 584 z35 + 348 z36 + 475 z37 + 178 z38 + 641 z39 + 898 z40 + 250 z41 + 391 z42 + 101 z43 + 636 z44 + 87 z45 + 652 z46 + 867 z47 + 54 z48 + 509 z49 + 989 z50 + 129 z51 + 597 z52 + 513 z53 + 201 z54 + 227 z55 + 82 z56 + 296 z57 + 802 z58 + 537 z59 + 943 z60 + 997 z61 + 642 z62 + 205 z63 + 551 z64 + 904 z65 + 400 z66 + 250 z67 + 586 z68 + 631 z69 + 752 z70 + 510 z71 + 542 z72 + 576 z73 + 550 z74 + 504 z75 + 702 z76 + 20 z77 + 179 z78 + 770 z79 + 95 z80 + 598 z81 + 885 z82 + 239 z83 + 37 z84 + 898 z85 + 923 z86 + 261 z87 + 786 z88 + 46 z89 + 438 z90 + 116 z91 + 503 z92 + 603 z93 + 194 z94 + 341 z95 + 545 z96 + 52 z97 + 810 z98 + 260 z99 + 197 z100 + 213 z101 + 462 z102 + 62 z103 + 203 z104 + 269 z105 + 160 z106 + 747 z107 + 174 z108 + 700 z109 + 114 z110 + 412 z111 + 905 z112 + 109 z113 + 369 z114 + 525 z115 + 987 z116 + 660 z117 + 149 z118 + 764 z119 + 396 z120 + 905 z121 + 30 z122 + 384 z123 + 981 z124 + 483 z125 + 176 z126 + 570 z127 + 891 z128 + 446 z129 + 567 z130 + 646 z131 + 229 z132 + 893 z133 + 723 z134 + 771 z135 + 329 z136 + 279 z137 + 253 z138 + 262 z139 + 802 z140 + 861 z141 + 127 z142 + 131 z143 + 460 z144 + 290 z145 + 296 z146 + 172 z147 + 158 z148 + 241 z149 + 301 z150
SUBJECT TO
1 z0 + 896 z1 + 367 z2 + 690 z3 + 613 z4 + 874 z5 + 122 z6 + 486 z7 + 823 z8 + 463 z9 + 589 z10 + 325 z11 + 1000 z12 + 776 z13 + 123 z14 + 356 z15 + 305 z16 + 47 z17 + 645 z18 + 139 z19 + 247 z20 + 211 z21 + 100 z22 + 627 z23 + 760 z24 + 776 z25 + 475 z26 + 937 z27 + 101 z28 + 281 z29 + 751 z30 + 530 z31 + 240 z32 + 248 z33 + 768 z34 + 31 z35 + 613 z36 + 881 z37 + 367 z38 + 712 z39 + 410 z40 + 157 z41 + 824 z42 + 242 z43 + 472 z44 + 722 z45 + 775 z46 + 371 z47 + 337 z48 + 885 z49 + 204 z50 + 594 z51 + 226 z52 + 226 z53 + 921 z54 + 537 z55 + 112 z56 + 959 z57 + 392 z58 + 709 z59 + 940 z60 + 943 z61 + 79 z62 + 922 z63 + 361 z64 + 947 z65 + 861 z66 + 937 z67 + 754 z68 + 872 z69 + 636 z70 + 459 z71 + 390 z72 + 141 z73 + 111 z74 + 588 z75 + 6 z76 + 155 z77 + 723 z78 + 723 z79 + 667 z80 + 829 z81 + 487 z82 + 590 z83 + 370 z84 + 823 z85 + 173 z86 + 56 z87 + 977 z88 + 681 z89 + 689 z90 + 933 z91 + 809 z92 + 587 z93 + 686 z94 + 466 z95 + 356 z96 + 784 z97 + 862 z98 + 223 z99 + 541 z100 + 61 z101 + 416 z102 + 62 z103 + 205 z104 + 152 z105 + 913 z106 + 267 z107 + 249 z108 + 187 z109 + 174 z110 + 939 z111 + 519 z112 + 56 z113 + 381 z114 + 551 z115 + 128 z116 + 812 z117 + 753 z118 + 544 z119 + 684 z120 + 830 z121 + 725 z122 + 330 z123 + 115 z124 + 38 z125 + 445 z126 + 619 z127 + 648 z128 + 896 z129 + 658 z130 + 306 z131 + 806 z132 + 800 z133 + 612 z134 + 354 z135 + 300 z136 + 174 z137 + 751 z138 + 126 z139 + 603 z140 + 665 z141 + 209 z142 + 308 z143 + 308 z144 + 677 z145 + 863 z146 + 292 z147 + 444 z148 + 295 z149 + 413 z150 <= 6924
BINARIES
z0
z1
z2
z3
z4
z5
z6
z7
z8
z9
z10
z11
z12
z13
z14
z15
z16
z17
z18
z19
z20
z21
z22
z23
z24
z25
z26
z27
z28
z29
z30
z31
z32
z33
z34
z35
z36
z37
z38
z39
z40
z41
z42
z43
z44
z45
z46
z47
z48
z49
z50
z51
z52
z53
z54
z55
z56
z57
z58
z59
z60
z61
z62
z63
z64
z65
z66
z67
z68
z69
z70
z71
z72
z73
z74
z75
z76
z77
z78
z79
z80
z81
z82
z83
z84
z85
z86
z87
z88
z89
z90
z91
z92
z93
z94
z95
z96
z97
z98
z99
z100
z101
z102
z103
z104
z105
z106
z107
z108
z109
z110
z111
z112
z113
z114
z115
z116
z117
z118
z119
z120
z121
z122
z123
z124
z125
z126
z127
z128
z129
z130
z131
z132
z133
z134
z135
z136
z137
z138
z139
z140
z141
z142
z143
z144
z145
z146
z147
z148
z149
z150
END