kp_sol_files/pr152_n151_uncorr_01-kp.sol
# Objective value = 23555
z0 1
z1 0
z2 1
z3 0
z4 0
z5 0
z6 1
z7 0
z8 0
z9 0
z10 0
z11 1
z12 0
z13 0
z14 1
z15 0
z16 1
z17 1
z18 0
z19 0
z20 1
z21 0
z22 1
z23 0
z24 0
z25 0
z26 1
z27 0
z28 0
z29 1
z30 0
z31 0
z32 1
z33 0
z34 0
z35 1
z36 0
z37 0
z38 0
z39 0
z40 1
z41 0
z42 0
z43 0
z44 0
z45 0
z46 0
z47 1
z48 0
z49 0
z50 1
z51 0
z52 1
z53 1
z54 0
z55 0
z56 0
z57 0
z58 1
z59 0
z60 0
z61 0
z62 1
z63 0
z64 0
z65 0
z66 0
z67 0
z68 0
z69 0
z70 0
z71 0
z72 0
z73 1
z74 1
z75 0
z76 1
z77 0
z78 0
z79 0
z80 0
z81 0
z82 0
z83 0
z84 0
z85 0
z86 1
z87 1
z88 0
z89 0
z90 0
z91 0
z92 0
z93 0
z94 0
z95 0
z96 0
z97 0
z98 0
z99 0
z100 0
z101 1
z102 0
z103 1
z104 0
z105 1
z106 0
z107 1
z108 0
z109 1
z110 0
z111 0
z112 0
z113 1
z114 0
z115 0
z116 1
z117 0
z118 0
z119 0
z120 0
z121 0
z122 0
z123 0
z124 1
z125 1
z126 0
z127 0
z128 0
z129 0
z130 0
z131 1
z132 0
z133 0
z134 0
z135 1
z136 0
z137 0
z138 0
z139 1
z140 0
z141 0
z142 0
z143 0
z144 0
z145 0
z146 0
z147 0
z148 0
z149 0
z150 0
